minizinc/sudoku_problems2/sudoku_p86.dzn
%
% sudoku_p86.dzn
% See http://www.hakank.org/minizinc/sudoku_gcc.mzn
% 
% This problem is problem 86 from
% Gecode's sudoku.cpp
% http://www.gecode.org/gecode-doc-latest/sudoku_8cpp-source.html
% 
x = array2d(1..n, 1..n, [   
% http://janko.at/Raetsel/Sudoku/598.a.htm
% 86
  _, 15, 10,  _,  _,  5,  _,  _,  _, 11,  7,  _,  _, 14,  _,  6,
  1,  8,  _,  _,  _,  _,  4, 11,  _,  _,  _, 12,  _,  _, 16,  _,
  _,  _, 16,  _,  7,  _,  _, 12, 15,  _,  _,  _,  _,  8,  _,  5,
  _, 11,  9, 12, 16,  8,  _,  _,  _,  _,  _,  _,  _,  _,  _,  _,
  _, 13,  _,  _, 10,  _, 16,  _,  _,  8,  5,  _,  _,  _,  _, 14,
  6,  9,  _,  _,  3,  _,  _,  _,  1,  _,  _,  _, 12,  5,  _,  _,
  7,  _,  4, 11,  _,  _,  _,  _, 16,  _, 10,  _,  2,  _,  _, 15,
  _,  _,  8,  _,  5, 11,  6, 13,  _,  _,  2,  7,  _,  _,  _,  _,
  _,  _,  _,  _,  8, 16,  _,  _, 14, 12,  6,  1,  _, 13,  _,  _,
  3,  _,  _,  6,  _, 12,  _,  7,  _,  _,  _,  _,  9,  1,  _,  8,
  _,  _, 13, 15,  _,  _,  _,  5,  _,  _,  _,  9,  _,  _,  7,  3,
  8,  _,  _,  _,  _,  6, 11,  _,  _,  2,  _,  5,  _,  _, 14,  _,
  _,  _,  _,  _,  _,  _,  _,  _,  _,  _,  1,  4, 14, 15, 13,  _,
  9,  _,  6,  _,  _,  _,  _, 10, 13,  _,  _, 15,  _,  7,  _,  _,
  _, 14,  _,  _,  6,  _,  _,  _,  2,  9,  _,  _,  _,  _,  1, 12,
 16,  _,  2,  _,  _, 14, 15,  _,  _,  _, 12,  _,  _,  4, 11,  _
]);

n = 16;


